[VALIDATOR STDOUT]
Checking plan: /home/jfan5/Safety-gen/runs/benchmark/optic/grid_20260205_143735/grid/optic_results/grid_x9_y9_sh2_k4_l4_s9001.plan
Plan to validate:

Plan size: 68
1:
(move pos8-4 pos7-4)
 
2:
(move pos7-4 pos6-4)
 
3:
(move pos6-4 pos6-3)
 
4:
(move pos6-3 pos6-2)
 
5:
(pickup pos6-2 key3)
 
6:
(move pos6-2 pos6-3)
 
7:
(move pos6-3 pos5-3)
 
8:
(move pos5-3 pos4-3)
 
9:
(move pos4-3 pos3-3)
 
10:
(move pos3-3 pos3-2)
 
11:
(putdown pos3-2 key3)
 
12:
(move pos3-2 pos3-3)
 
13:
(move pos3-3 pos3-4)
 
14:
(move pos3-4 pos4-4)
 
15:
(move pos4-4 pos5-4)
 
16:
(move pos5-4 pos6-4)
 
17:
(pickup pos6-4 key2)
 
18:
(move pos6-4 pos5-4)
 
19:
(move pos5-4 pos4-4)
 
20:
(move pos4-4 pos3-4)
 
21:
(move pos3-4 pos3-3)
 
22:
(move pos3-3 pos3-2)
 
23:
(pickup-and-loose pos3-2 key3 key2)
 
24:
(move pos3-2 pos2-2)
 
25:
(move pos2-2 pos1-2)
 
26:
(move pos1-2 pos1-3)
 
27:
(move pos1-3 pos0-3)
 
28:
(unlock pos0-3 pos0-4 key3 shape0)
 
29:
(move pos0-3 pos1-3)
 
30:
(move pos1-3 pos1-2)
 
31:
(move pos1-2 pos2-2)
 
32:
(putdown pos2-2 key3)
 
33:
(move pos2-2 pos1-2)
 
34:
(move pos1-2 pos1-3)
 
35:
(move pos1-3 pos0-3)
 
36:
(move pos0-3 pos0-2)
 
37:
(pickup pos0-2 key0)
 
38:
(move pos0-2 pos1-2)
 
39:
(move pos1-2 pos1-3)
 
40:
(move pos1-3 pos1-4)
 
41:
(putdown pos1-4 key0)
 
42:
(move pos1-4 pos0-4)
 
43:
(pickup pos0-4 key1)
 
44:
(move pos0-4 pos1-4)
 
45:
(move pos1-4 pos1-3)
 
46:
(move pos1-3 pos1-2)
 
47:
(move pos1-2 pos2-2)
 
48:
(move pos2-2 pos3-2)
 
49:
(pickup-and-loose pos3-2 key2 key1)
 
50:
(move pos3-2 pos3-3)
 
51:
(move pos3-3 pos3-4)
 
52:
(move pos3-4 pos2-4)
 
53:
(move pos2-4 pos1-4)
 
54:
(move pos1-4 pos1-5)
 
55:
(move pos1-5 pos1-6)
 
56:
(move pos1-6 pos1-7)
 
57:
(putdown pos1-7 key2)
 
58:
(move pos1-7 pos1-6)
 
59:
(move pos1-6 pos1-5)
 
60:
(move pos1-5 pos1-4)
 
61:
(pickup pos1-4 key0)
 
62:
(move pos1-4 pos1-5)
 
63:
(move pos1-5 pos1-6)
 
64:
(move pos1-6 pos2-6)
 
65:
(move pos2-6 pos3-6)
 
66:
(move pos3-6 pos4-6)
 
67:
(move pos4-6 pos5-6)
 
68:
(putdown pos5-6 key0)
 

Plan Validation details
-----------------------

Checking next happening (time 1)
Deleting (at-robot pos8-4)
Adding (at-robot pos7-4)

Checking next happening (time 2)
Deleting (at-robot pos7-4)
Adding (at-robot pos6-4)

Checking next happening (time 3)
Deleting (at-robot pos6-4)
Adding (at-robot pos6-3)

Checking next happening (time 4)
Deleting (at-robot pos6-3)
Adding (at-robot pos6-2)

Checking next happening (time 5)
Deleting (at key3 pos6-2)
Deleting (arm-empty)
Adding (holding key3)

Checking next happening (time 6)
Deleting (at-robot pos6-2)
Adding (at-robot pos6-3)

Checking next happening (time 7)
Deleting (at-robot pos6-3)
Adding (at-robot pos5-3)

Checking next happening (time 8)
Deleting (at-robot pos5-3)
Adding (at-robot pos4-3)

Checking next happening (time 9)
Deleting (at-robot pos4-3)
Adding (at-robot pos3-3)

Checking next happening (time 10)
Deleting (at-robot pos3-3)
Adding (at-robot pos3-2)

Checking next happening (time 11)
Deleting (holding key3)
Adding (arm-empty)
Adding (at key3 pos3-2)

Checking next happening (time 12)
Deleting (at-robot pos3-2)
Adding (at-robot pos3-3)

Checking next happening (time 13)
Deleting (at-robot pos3-3)
Adding (at-robot pos3-4)

Checking next happening (time 14)
Deleting (at-robot pos3-4)
Adding (at-robot pos4-4)

Checking next happening (time 15)
Deleting (at-robot pos4-4)
Adding (at-robot pos5-4)

Checking next happening (time 16)
Deleting (at-robot pos5-4)
Adding (at-robot pos6-4)

Checking next happening (time 17)
Deleting (at key2 pos6-4)
Deleting (arm-empty)
Adding (holding key2)

Checking next happening (time 18)
Deleting (at-robot pos6-4)
Adding (at-robot pos5-4)

Checking next happening (time 19)
Deleting (at-robot pos5-4)
Adding (at-robot pos4-4)

Checking next happening (time 20)
Deleting (at-robot pos4-4)
Adding (at-robot pos3-4)

Checking next happening (time 21)
Deleting (at-robot pos3-4)
Adding (at-robot pos3-3)

Checking next happening (time 22)
Deleting (at-robot pos3-3)
Adding (at-robot pos3-2)

Checking next happening (time 23)
Deleting (holding key2)
Deleting (at key3 pos3-2)
Adding (holding key3)
Adding (at key2 pos3-2)

Checking next happening (time 24)
Deleting (at-robot pos3-2)
Adding (at-robot pos2-2)

Checking next happening (time 25)
Deleting (at-robot pos2-2)
Adding (at-robot pos1-2)

Checking next happening (time 26)
Deleting (at-robot pos1-2)
Adding (at-robot pos1-3)

Checking next happening (time 27)
Deleting (at-robot pos1-3)
Adding (at-robot pos0-3)

Checking next happening (time 28)
Deleting (locked pos0-4)
Adding (open pos0-4)

Checking next happening (time 29)
Deleting (at-robot pos0-3)
Adding (at-robot pos1-3)

Checking next happening (time 30)
Deleting (at-robot pos1-3)
Adding (at-robot pos1-2)

Checking next happening (time 31)
Deleting (at-robot pos1-2)
Adding (at-robot pos2-2)

Checking next happening (time 32)
Deleting (holding key3)
Adding (arm-empty)
Adding (at key3 pos2-2)

Checking next happening (time 33)
Deleting (at-robot pos2-2)
Adding (at-robot pos1-2)

Checking next happening (time 34)
Deleting (at-robot pos1-2)
Adding (at-robot pos1-3)

Checking next happening (time 35)
Deleting (at-robot pos1-3)
Adding (at-robot pos0-3)

Checking next happening (time 36)
Deleting (at-robot pos0-3)
Adding (at-robot pos0-2)

Checking next happening (time 37)
Deleting (at key0 pos0-2)
Deleting (arm-empty)
Adding (holding key0)

Checking next happening (time 38)
Deleting (at-robot pos0-2)
Adding (at-robot pos1-2)

Checking next happening (time 39)
Deleting (at-robot pos1-2)
Adding (at-robot pos1-3)

Checking next happening (time 40)
Deleting (at-robot pos1-3)
Adding (at-robot pos1-4)

Checking next happening (time 41)
Deleting (holding key0)
Adding (arm-empty)
Adding (at key0 pos1-4)

Checking next happening (time 42)
Deleting (at-robot pos1-4)
Adding (at-robot pos0-4)

Checking next happening (time 43)
Deleting (at key1 pos0-4)
Deleting (arm-empty)
Adding (holding key1)

Checking next happening (time 44)
Deleting (at-robot pos0-4)
Adding (at-robot pos1-4)

Checking next happening (time 45)
Deleting (at-robot pos1-4)
Adding (at-robot pos1-3)

Checking next happening (time 46)
Deleting (at-robot pos1-3)
Adding (at-robot pos1-2)

Checking next happening (time 47)
Deleting (at-robot pos1-2)
Adding (at-robot pos2-2)

Checking next happening (time 48)
Deleting (at-robot pos2-2)
Adding (at-robot pos3-2)

Checking next happening (time 49)
Deleting (holding key1)
Deleting (at key2 pos3-2)
Adding (holding key2)
Adding (at key1 pos3-2)

Checking next happening (time 50)
Deleting (at-robot pos3-2)
Adding (at-robot pos3-3)

Checking next happening (time 51)
Deleting (at-robot pos3-3)
Adding (at-robot pos3-4)

Checking next happening (time 52)
Deleting (at-robot pos3-4)
Adding (at-robot pos2-4)

Checking next happening (time 53)
Deleting (at-robot pos2-4)
Adding (at-robot pos1-4)

Checking next happening (time 54)
Deleting (at-robot pos1-4)
Adding (at-robot pos1-5)

Checking next happening (time 55)
Deleting (at-robot pos1-5)
Adding (at-robot pos1-6)

Checking next happening (time 56)
Deleting (at-robot pos1-6)
Adding (at-robot pos1-7)

Checking next happening (time 57)
Deleting (holding key2)
Adding (arm-empty)
Adding (at key2 pos1-7)

Checking next happening (time 58)
Deleting (at-robot pos1-7)
Adding (at-robot pos1-6)

Checking next happening (time 59)
Deleting (at-robot pos1-6)
Adding (at-robot pos1-5)

Checking next happening (time 60)
Deleting (at-robot pos1-5)
Adding (at-robot pos1-4)

Checking next happening (time 61)
Deleting (at key0 pos1-4)
Deleting (arm-empty)
Adding (holding key0)

Checking next happening (time 62)
Deleting (at-robot pos1-4)
Adding (at-robot pos1-5)

Checking next happening (time 63)
Deleting (at-robot pos1-5)
Adding (at-robot pos1-6)

Checking next happening (time 64)
Deleting (at-robot pos1-6)
Adding (at-robot pos2-6)

Checking next happening (time 65)
Deleting (at-robot pos2-6)
Adding (at-robot pos3-6)

Checking next happening (time 66)
Deleting (at-robot pos3-6)
Adding (at-robot pos4-6)

Checking next happening (time 67)
Deleting (at-robot pos4-6)
Adding (at-robot pos5-6)

Checking next happening (time 68)
Deleting (holding key0)
Adding (arm-empty)
Adding (at key0 pos5-6)
Plan executed successfully - checking goal
Plan valid
Final value: 68 

Successful plans:
Value: 68
 /home/jfan5/Safety-gen/runs/benchmark/optic/grid_20260205_143735/grid/optic_results/grid_x9_y9_sh2_k4_l4_s9001.plan 68
